38 1
58 44
12 153
82 4
86 26
7 5
34 118
58 39
72 26
18 8
36 11
46 117
26 66
62 42
45 17
39 131
3 94
23 52
81 24
34 48
69 43
46 3
1 31
30 179
98 11
16 192
68 21
6 44
42 36
41 27
20 37
70 4
36 52
11 87
46 14
60 66
28 68
12 105
53 76
65 39
88 5
58 67
83 33
8 69
15 74
63 33
32 84
34 79
10 64
1 92
55 26
21 142
37 12
53 39
44 11
68 62
14 27
88 37
46 4
1 78
92 42
30 36
48 124
7 74
12 80
55 41
1 75
5 151
20 17
88 39
50 16
22 63
16 127
16 148
9 94
17 31
32 60
31 120
12 138
4 114
45 102
71 34
51 62
49 43
58 77
36 20
8 147
57 28
27 70
42 31
25 94
21 127
30 180
1 51
48 39
21 176
68 52
12 87
34 45
56 65
